qe/outputs/qe/qe_queries_cbrdelay/T=5,eliminate=[I_0,I_1,I_2,I_3,I_4,L_1,L_2,L_3,L_4,C,B].smt2
; benchmark generated from python API
(set-info :status unknown)
(declare-fun S_3 () Real)
(declare-fun L_0 () Real)
(declare-fun A_3 () Real)
(declare-fun S_4 () Real)
(declare-fun A_4 () Real)
(declare-fun S_1 () Real)
(declare-fun A_1 () Real)
(declare-fun S_0 () Real)
(declare-fun A_0 () Real)
(declare-fun A_2 () Real)
(declare-fun S_2 () Real)
(assert
 (let (($x34 (>= L_0 0.0)))
 (let ((?x1326 (* (/ 1.0 2.0) S_0)))
 (let ((?x383 (* (- 1.0) S_3)))
 (let ((?x2889 (* (/ 1.0 2.0) S_4)))
 (let ((?x6149 (* (- (/ 1.0 2.0)) A_1)))
 (let ((?x10962 (* (- (/ 1.0 2.0)) A_3)))
 (let (($x27760 (<= (+ ?x10962 A_2 ?x6149 ?x2889 ?x383 ?x1326) (- (/ 5.0 2.0)))))
 (let (($x2954 (<= (+ (* (- 1.0) A_3) L_0 S_4 (* (- (/ 1.0 2.0)) S_3) ?x1326) 0.0)))
 (let (($x4624 (<= (+ (* (- 1.0) A_3) A_1 S_4 ?x383) 0.0)))
 (let (($x881 (<= (+ A_2 (* (- 1.0) L_0) ?x383) 0.0)))
 (let (($x19215 (<= (+ (* (- 1.0) A_3) A_2 S_4 ?x383 (* (- 1.0) S_2) S_0) 0.0)))
 (let (($x887 (<= (+ A_1 (* (- 1.0) L_0) (* (- 1.0) S_2)) 0.0)))
 (let (($x1616 (<= (+ S_4 (* (- 3.0) S_3) (* 2.0 S_1)) 0.0)))
 (let (($x1747 (<= (+ (* (- 1.0) A_0) ?x383 (* 2.0 S_1) L_0) 0.0)))
 (let (($x11206 (<= (+ (* (- 3.0) S_4) (* 4.0 S_2) (* (- 1.0) S_0)) 0.0)))
 (let ((?x372 (* (- 1.0) S_4)))
 (let ((?x360 (* (- 1.0) A_2)))
 (let ((?x757 (+ A_3 ?x360 ?x372 S_2)))
 (let (($x1197 (<= ?x757 0.0)))
 (let (($x26499 (<= (+ A_2 (* (- 1.0) A_1) ?x383 S_1) (- 5.0))))
 (let (($x6191 (<= (+ (* (- 1.0) A_3) L_0 S_4 ?x383 S_1) 0.0)))
 (let ((?x1615 (* 2.0 S_1)))
 (let ((?x892 (* (- 1.0) A_0)))
 (let ((?x364 (* (- 1.0) A_1)))
 (let (($x26806 (<= (+ (* 2.0 A_3) (* (- 2.0) A_2) ?x372 S_1) (- 10.0))))
 (let (($x26189 (<= (+ A_3 ?x364 ?x372 S_1) (- 5.0))))
 (let (($x875 (<= (+ A_3 (* (- 1.0) L_0) ?x372) 0.0)))
 (let (($x28986 (or $x875 (<= (+ ?x892 (* (- (/ 1.0 2.0)) S_4) (* (/ 3.0 2.0) S_1) L_0) 0.0) (<= (+ A_2 ?x892 ?x372 S_1) 0.0) $x26189 $x26806 (<= (+ A_2 ?x364 ?x892 ?x372 ?x1615 L_0) (- 5.0)))))
 (let (($x27053 (not $x26806)))
 (let (($x25261 (<= (+ A_2 (* (- 1.0) L_0) ?x372) (- 5.0))))
 (let (($x29987 (or $x875 $x25261 (<= (+ (* (- (/ 1.0 2.0)) S_4) (* (/ 1.0 2.0) S_1)) (- 5.0)) $x26189)))
 (let (($x24541 (or $x1197 (<= (+ ?x372 S_2 (* (/ 1.0 2.0) S_1) (* (- (/ 1.0 2.0)) S_0)) 0.0))))
 (let ((?x932 (* (- 1.0) S_0)))
 (let ((?x3287 (* (- 2.0) S_4)))
 (let ((?x3297 (* (- 2.0) L_0)))
 (let ((?x779 (* 2.0 A_2)))
 (let (($x28927 (or $x875 (<= (+ ?x372 ?x1615 ?x932) 0.0) (<= (+ ?x779 ?x3297 ?x3287 S_1 ?x932) 0.0) $x26189 $x26806 (<= (+ A_2 ?x364 ?x372 (* (/ 3.0 2.0) S_1) (* (- (/ 1.0 2.0)) S_0)) (- 5.0)))))
 (let (($x46325 (or $x875 $x26189 $x27053 (<= (+ A_3 ?x360 ?x372 (* (/ 3.0 2.0) S_1) (* (- (/ 1.0 2.0)) S_0)) (- 5.0)))))
 (let ((?x2570 (* (- (/ 3.0 2.0)) S_3)))
 (let ((?x11275 (+ A_2 ?x364 ?x2889 ?x2570 S_0)))
 (let (($x27226 (<= 0.0 ?x11275)))
 (let (($x15617 (<= (+ ?x2889 ?x383 ?x1326) 0.0)))
 (let ((?x10951 (* (/ 1.0 2.0) A_3)))
 (let (($x16965 (<= (+ (* (- (/ 1.0 2.0)) A_4) ?x10951 (* (/ 1.0 2.0) A_2) ?x6149 ?x2889 ?x383 ?x1326) 0.0)))
 (let (($x26936 (<= ?x11275 (- 5.0))))
 (let (($x28454 (or $x881 (<= (+ (* 2.0 A_1) ?x3297 S_4 (* (- 3.0) S_3)) 0.0) $x15617 $x26936)))
 (let (($x26506 (<= 0.0 (+ A_4 ?x360 ?x372 S_3))))
 (let (($x1284 (<= (+ (* (- 2.0) S_3) (* 3.0 S_1) ?x932) 0.0)))
 (let (($x19409 (or $x887 (<= (+ (* (- 1.0) A_3) L_0 S_4 (* (- 1.0) S_2) S_0) 0.0))))
 (let (($x26200 (<= (+ A_3 ?x364 ?x372 (* (/ 1.0 2.0) S_2) ?x1326) (- 5.0))))
 (let (($x25636 (<= ?x757 (- 5.0))))
 (let (($x11226 (<= (+ ?x892 ?x3287 (* 3.0 S_2) L_0) 0.0)))
 (let (($x11209 (<= (+ ?x3287 (* 3.0 S_2) (* (- 1.0) S_1)) 0.0)))
 (let (($x33189 (or $x887 (<= (+ ?x360 L_0 S_4 (* (- 2.0) S_2) (* 2.0 S_0)) 0.0))))
 (let (($x15556 (or $x887 (<= (+ ?x2889 (* (- (/ 1.0 2.0)) S_3) (* (- 1.0) S_2) S_0) 0.0))))
 (let (($x26194 (<= (+ A_3 ?x364 ?x372 S_0) (- 10.0))))
 (let (($x315 (<= (+ (* (- (/ 1.0 3.0)) S_4) (* (/ 1.0 3.0) S_0)) (- 5.0))))
 (let (($x46649 (or $x315 $x875 $x25261 $x26194 (<= (+ (* (/ 1.0 2.0) A_1) (* (- (/ 1.0 2.0)) L_0) (* (- (/ 1.0 2.0)) S_4)) (- 5.0)))))
 (let (($x29771 (or (<= 0.0 (+ ?x364 (* (/ 1.0 3.0) S_4) (* (/ 2.0 3.0) S_0) L_0)) $x315 $x875 $x25261 $x26194)))
 (let (($x10274 (<= (+ ?x6149 (* (/ 1.0 2.0) L_0) (* (- (/ 1.0 2.0)) S_4) S_2) 0.0)))
 (let (($x25893 (<= (+ (* (- (/ 1.0 2.0)) S_3) ?x1326) (- 5.0))))
 (let (($x46506 (or $x315 $x875 $x25261 (not (<= 0.0 (+ ?x360 A_1 (* (/ 1.0 2.0) S_2) (* (- (/ 1.0 2.0)) S_0)))) $x26194)))
 (let (($x29965 (or $x315 (not (<= (- 5.0) (+ ?x364 (* (/ 1.0 3.0) S_4) (* (/ 2.0 3.0) S_0) L_0))) $x875 $x887 $x25261)))
 (let (($x96 (>= S_1 S_0)))
 (let (($x99 (>= S_2 S_1)))
 (let (($x102 (>= S_3 S_2)))
 (let (($x105 (>= S_4 S_3)))
 (let (($x107 (>= A_1 A_0)))
 (let (($x108 (>= A_2 A_1)))
 (let (($x109 (>= A_3 A_2)))
 (let (($x110 (>= A_4 A_3)))
 (and $x110 $x109 $x108 $x107 $x105 $x102 $x99 $x96 (or (<= (+ ?x383 S_1) (- 5.0)) $x881) (or $x887 (<= (+ (* (- 1.0) S_2) S_0) (- 5.0))) (or $x881 (<= 0.0 (+ ?x364 L_0 (* (/ 1.0 2.0) S_3) ?x1326)) $x25893) (<= (+ ?x360 L_0 S_2) 0.0) $x29965 $x46506 (or $x875 $x26189 (<= (+ ?x372 S_2) (- 5.0))) (or $x881 $x25893 (<= (+ A_1 (* (- 1.0) L_0) ?x383) (- 5.0))) (or $x875 $x10274 $x25636 $x26189) (or $x1197 $x10274) (or $x875 $x10274 $x25636 $x26200) (or $x875 $x11206 $x25636 $x26189) (or $x875 $x11226 $x25636 $x26189) (or $x315 $x875 $x887 $x25261 $x26194) $x29771 $x46649 (or $x881 $x1616 $x26499) (or $x887 (<= (+ S_3 (* (- 3.0) S_2) (* 2.0 S_0)) 0.0)) $x15556 (or $x887 (<= (+ S_4 (* (- 4.0) S_2) (* 3.0 S_0)) 0.0)) $x33189 (or $x1616 $x26506) (or $x881 $x1616 $x16965) (or $x881 $x1747 $x16965) (or $x1197 (<= (+ ?x892 ?x372 S_2 S_1 L_0) 0.0)) (or $x881 $x1747 $x26499) (or $x881 $x1284 $x26499) (or $x875 $x26200 (<= (+ ?x372 S_2) (- 5.0))) (or $x875 $x11206 $x25636 $x26200) (or $x875 $x11209 $x25636 $x26200) (or $x875 $x11226 $x25636 $x26200) $x19409 (or $x1747 $x26506) (or $x1284 $x26506) (or $x887 (<= (+ ?x360 L_0 S_3 (* (- 1.0) S_2) S_0) 0.0)) (or $x6191 $x26506) (or $x881 $x6191 $x19215) (or $x881 $x6191 $x27760) (or $x2954 $x4624 $x26506) $x28454 (or $x15617 $x26506 $x27226) (or $x881 $x15617 $x16965 (not $x26936)) (or $x881 $x15617 $x27226 $x27760) (or $x1197 $x11209) (or $x1197 $x11226) $x46325 $x28927 $x24541 $x29987 (or $x875 $x26189 $x27053 (<= (+ A_3 ?x360 ?x892 ?x372 ?x1615 L_0) (- 5.0))) $x28986 (or $x881 $x6191 $x26499) (or $x1197 (<= (+ ?x372 S_2) (- 5.0))) (or $x887 $x1616 $x19215) (or $x887 $x15617 $x19215) (or $x1197 $x11206) (or $x887 $x1747 $x19215) (or $x881 $x1747 $x27760) (or $x881 $x1616 $x27760) (or $x887 $x2954 $x19215) (or $x881 $x4624 $x2954 $x27760) $x34 (<= (+ ?x892 L_0 S_0) 0.0) (<= (+ ?x364 L_0 S_1) 0.0) (<= (+ (* (- 1.0) A_4) L_0 S_4) 0.0) (<= (+ (* (- 1.0) A_3) L_0 S_3) 0.0))))))))))))))))))))))))))))))))))))))))))))))))))))))))))))))))))))))))))
(check-sat)
